22      4       
20      20      14      13      
0       0       0       0       0       4       2       3       4       5       
8       6       3       5       5       1       6       
1       10      10      0       5       2       7       8       
2       8       7       3       4       1       17      
5       5       10      5       2       1       9       
8       10      0       1       0       2       8       15      
5       1       8       7       0       3       9       11      16      
5       5       7       9       2       2       10      20      
5       3       5       2       0       1       13      
10      1       8       0       0       1       11      
6       7       2       0       0       1       12      
2       1       5       4       3       1       14      
10      8       4       3       3       1       15      
10      0       0       1       2       1       19      
9       6       2       0       0       2       19      20      
6       0       0       10      0       1       17      
9       0       6       4       9       1       18      
2       2       3       0       3       1       19      
4       10      5       6       4       1       21      
10      10      0       2       0       1       22      
3       10      1       5       10      1       22      
0       0       0       0       0       0       
